<instance format="XCSP3" type="COP">
  <variables>
    <var id="x" note="x is the number of unused bins"> 0..24 </var>
    <array id="b" note="b[i][j] indicates the weight of the jth object put in the ith bin. It is 0 if there is no object at this place." size="[24][3]"> 0 250..252 254 256 259..263 266..268 271 276 277 279..281 284 288 305 308 326 328 339 345 350 352 354 362 367 369 378 390 398 400 401 429 430 436 459 464 476 479 482 494 498 </array>
  </variables>
  <constraints>
    <group>
      <mdd>
        <list> %... </list>
        <transitions> (root,0,n3)(root,250,n5)(root,251,n7)(root,252,n8)(root,254,n10)(root,256,n12)(root,259,n13)(root,260,n15)(root,261,n18)(root,262,n20)(root,263,n22)(root,266,n23)(root,267,n25)(root,268,n25)(root,271,n28)(root,276,n29)(root,277,n31)(root,279,n33)(root,280,n35)(root,281,n37)(root,284,n39)(root,288,n41)(root,305,n44)(root,308,n46)(root,326,n47)(root,328,n49)(root,339,n51)(root,345,n53)(root,350,n54)(root,352,n55)(root,354,n56)(root,362,n57)(root,367,n58)(root,369,n59)(root,378,n60)(root,390,n61)(root,398,n62)(root,400,n63)(root,401,n64)(root,429,n65)(root,430,n67)(root,436,n68)(root,459,n69)(root,464,n70)(root,476,n71)(root,479,n72)(root,482,n73)(root,494,n74)(root,498,n75)(n3,0,n4)(n4,0,nodeT)(n5,0,n4)(n5,250,n6)(n6,0,nodeT)(n6,250,nodeT)(n7,0,n4)(n7,250,n6)(n7,251,n6)(n8,0,n4)(n8,250,n6)(n8,251,n9)(n8,252,n9)(n9,0,nodeT)(n9,250,nodeT)(n9,251,nodeT)(n10,0,n4)(n10,250,n6)(n10,251,n9)(n10,252,n11)(n11,0,nodeT)(n11,250,nodeT)(n11,251,nodeT)(n11,252,nodeT)(n12,0,n4)(n12,250,n6)(n12,251,n9)(n12,252,n11)(n12,254,n11)(n13,0,n4)(n13,250,n6)(n13,251,n9)(n13,252,n11)(n13,254,n11)(n13,256,n14)(n14,0,nodeT)(n14,250,nodeT)(n14,251,nodeT)(n14,252,nodeT)(n14,254,nodeT)(n15,0,n4)(n15,250,n6)(n15,251,n9)(n15,252,n11)(n15,254,n11)(n15,256,n14)(n15,259,n16)(n15,260,n17)(n16,0,nodeT)(n16,250,nodeT)(n16,251,nodeT)(n16,252,nodeT)(n16,254,nodeT)(n16,256,nodeT)(n17,0,nodeT)(n17,250,nodeT)(n17,251,nodeT)(n17,252,nodeT)(n17,254,nodeT)(n17,256,nodeT)(n17,259,nodeT)(n18,0,n4)(n18,250,n6)(n18,251,n9)(n18,252,n11)(n18,254,n11)(n18,256,n14)(n18,259,n16)(n18,260,n19)(n18,261,n19)(n19,0,nodeT)(n19,250,nodeT)(n19,251,nodeT)(n19,252,nodeT)(n19,254,nodeT)(n19,256,nodeT)(n19,259,nodeT)(n19,260,nodeT)(n20,0,n4)(n20,250,n6)(n20,251,n9)(n20,252,n11)(n20,254,n11)(n20,256,n14)(n20,259,n16)(n20,260,n19)(n20,261,n21)(n21,0,nodeT)(n21,250,nodeT)(n21,251,nodeT)(n21,252,nodeT)(n21,254,nodeT)(n21,256,nodeT)(n21,259,nodeT)(n21,260,nodeT)(n21,261,nodeT)(n22,0,n4)(n22,250,n6)(n22,251,n9)(n22,252,n11)(n22,254,n11)(n22,256,n14)(n22,259,n16)(n22,260,n19)(n22,261,n21)(n22,262,n21)(n23,0,n4)(n23,250,n6)(n23,251,n9)(n23,252,n11)(n23,254,n11)(n23,256,n14)(n23,259,n16)(n23,260,n19)(n23,261,n21)(n23,262,n21)(n23,263,n24)(n24,0,nodeT)(n24,250,nodeT)(n24,251,nodeT)(n24,252,nodeT)(n24,254,nodeT)(n24,256,nodeT)(n24,259,nodeT)(n24,260,nodeT)(n24,261,nodeT)(n24,262,nodeT)(n25,0,n4)(n25,250,n6)(n25,251,n9)(n25,252,n11)(n25,254,n11)(n25,256,n14)(n25,259,n16)(n25,260,n19)(n25,261,n21)(n25,262,n21)(n25,263,n24)(n25,266,n26)(n25,267,n27)(n26,0,nodeT)(n26,250,nodeT)(n26,251,nodeT)(n26,252,nodeT)(n26,254,nodeT)(n26,256,nodeT)(n26,259,nodeT)(n26,260,nodeT)(n26,261,nodeT)(n26,262,nodeT)(n26,263,nodeT)(n27,0,nodeT)(n27,250,nodeT)(n27,251,nodeT)(n27,252,nodeT)(n27,254,nodeT)(n27,256,nodeT)(n27,259,nodeT)(n27,260,nodeT)(n27,261,nodeT)(n27,262,nodeT)(n27,263,nodeT)(n27,266,nodeT)(n27,267,nodeT)(n28,0,n4)(n28,250,n6)(n28,251,n9)(n28,252,n11)(n28,254,n11)(n28,256,n14)(n28,259,n16)(n28,260,n19)(n28,261,n21)(n28,262,n21)(n28,263,n24)(n28,266,n26)(n28,267,n27)(n28,268,n27)(n29,0,n4)(n29,250,n6)(n29,251,n9)(n29,252,n11)(n29,254,n11)(n29,256,n14)(n29,259,n16)(n29,260,n19)(n29,261,n21)(n29,262,n21)(n29,263,n24)(n29,266,n26)(n29,267,n27)(n29,268,n27)(n29,271,n30)(n30,0,nodeT)(n30,250,nodeT)(n30,251,nodeT)(n30,252,nodeT)(n30,254,nodeT)(n30,256,nodeT)(n30,259,nodeT)(n30,260,nodeT)(n30,261,nodeT)(n30,262,nodeT)(n30,263,nodeT)(n30,266,nodeT)(n30,267,nodeT)(n30,268,nodeT)(n31,0,n4)(n31,250,n6)(n31,251,n9)(n31,252,n11)(n31,254,n11)(n31,256,n14)(n31,259,n16)(n31,260,n19)(n31,261,n21)(n31,262,n21)(n31,263,n24)(n31,266,n26)(n31,267,n27)(n31,268,n27)(n31,271,n30)(n31,276,n32)(n32,0,nodeT)(n32,250,nodeT)(n32,251,nodeT)(n32,252,nodeT)(n32,254,nodeT)(n32,256,nodeT)(n32,259,nodeT)(n32,260,nodeT)(n32,261,nodeT)(n32,262,nodeT)(n32,263,nodeT)(n32,266,nodeT)(n32,267,nodeT)(n32,268,nodeT)(n32,271,nodeT)(n33,0,n4)(n33,250,n6)(n33,251,n9)(n33,252,n11)(n33,254,n11)(n33,256,n14)(n33,259,n16)(n33,260,n19)(n33,261,n21)(n33,262,n21)(n33,263,n24)(n33,266,n26)(n33,267,n27)(n33,268,n27)(n33,271,n30)(n33,276,n32)(n33,277,n34)(n34,0,nodeT)(n34,250,nodeT)(n34,251,nodeT)(n34,252,nodeT)(n34,254,nodeT)(n34,256,nodeT)(n34,259,nodeT)(n34,260,nodeT)(n34,261,nodeT)(n34,262,nodeT)(n34,263,nodeT)(n34,266,nodeT)(n34,267,nodeT)(n34,268,nodeT)(n34,271,nodeT)(n34,276,nodeT)(n35,0,n4)(n35,250,n6)(n35,251,n9)(n35,252,n11)(n35,254,n11)(n35,256,n14)(n35,259,n16)(n35,260,n19)(n35,261,n21)(n35,262,n21)(n35,263,n24)(n35,266,n26)(n35,267,n27)(n35,268,n27)(n35,271,n30)(n35,276,n32)(n35,277,n34)(n35,279,n36)(n36,0,nodeT)(n36,250,nodeT)(n36,251,nodeT)(n36,252,nodeT)(n36,254,nodeT)(n36,256,nodeT)(n36,259,nodeT)(n36,260,nodeT)(n36,261,nodeT)(n36,262,nodeT)(n36,263,nodeT)(n36,266,nodeT)(n36,267,nodeT)(n36,268,nodeT)(n36,271,nodeT)(n36,276,nodeT)(n36,277,nodeT)(n37,0,n4)(n37,250,n6)(n37,251,n9)(n37,252,n11)(n37,254,n11)(n37,256,n14)(n37,259,n16)(n37,260,n19)(n37,261,n21)(n37,262,n21)(n37,263,n24)(n37,266,n26)(n37,267,n27)(n37,268,n27)(n37,271,n30)(n37,276,n32)(n37,277,n34)(n37,279,n36)(n37,280,n38)(n38,0,nodeT)(n38,250,nodeT)(n38,251,nodeT)(n38,252,nodeT)(n38,254,nodeT)(n38,256,nodeT)(n38,259,nodeT)(n38,260,nodeT)(n38,261,nodeT)(n38,262,nodeT)(n38,263,nodeT)(n38,266,nodeT)(n38,267,nodeT)(n38,268,nodeT)(n38,271,nodeT)(n38,276,nodeT)(n38,277,nodeT)(n38,279,nodeT)(n39,0,n4)(n39,250,n6)(n39,251,n9)(n39,252,n11)(n39,254,n11)(n39,256,n14)(n39,259,n16)(n39,260,n19)(n39,261,n21)(n39,262,n21)(n39,263,n24)(n39,266,n26)(n39,267,n27)(n39,268,n27)(n39,271,n30)(n39,276,n32)(n39,277,n34)(n39,279,n36)(n39,280,n38)(n39,281,n40)(n40,0,nodeT)(n40,250,nodeT)(n40,251,nodeT)(n40,252,nodeT)(n40,254,nodeT)(n40,256,nodeT)(n40,259,nodeT)(n40,260,nodeT)(n40,261,nodeT)(n40,262,nodeT)(n40,263,nodeT)(n40,266,nodeT)(n40,267,nodeT)(n40,268,nodeT)(n40,271,nodeT)(n40,276,nodeT)(n40,277,nodeT)(n40,279,nodeT)(n40,280,nodeT)(n41,0,n4)(n41,250,n6)(n41,251,n9)(n41,252,n11)(n41,254,n11)(n41,256,n14)(n41,259,n16)(n41,260,n19)(n41,261,n21)(n41,262,n21)(n41,263,n24)(n41,266,n26)(n41,267,n27)(n41,268,n27)(n41,271,n30)(n41,276,n32)(n41,277,n34)(n41,279,n36)(n41,280,n38)(n41,281,n40)(n41,284,n42)(n41,288,n43)(n42,0,nodeT)(n42,250,nodeT)(n42,251,nodeT)(n42,252,nodeT)(n42,254,nodeT)(n42,256,nodeT)(n42,259,nodeT)(n42,260,nodeT)(n42,261,nodeT)(n42,262,nodeT)(n42,263,nodeT)(n42,266,nodeT)(n42,267,nodeT)(n42,268,nodeT)(n42,271,nodeT)(n42,276,nodeT)(n42,277,nodeT)(n42,279,nodeT)(n42,280,nodeT)(n42,281,nodeT)(n43,0,nodeT)(n43,250,nodeT)(n43,251,nodeT)(n43,252,nodeT)(n43,254,nodeT)(n43,256,nodeT)(n43,259,nodeT)(n43,260,nodeT)(n43,261,nodeT)(n43,262,nodeT)(n43,263,nodeT)(n43,266,nodeT)(n43,267,nodeT)(n43,268,nodeT)(n43,271,nodeT)(n43,276,nodeT)(n43,277,nodeT)(n43,279,nodeT)(n43,280,nodeT)(n43,281,nodeT)(n43,284,nodeT)(n44,0,n4)(n44,250,n6)(n44,251,n9)(n44,252,n11)(n44,254,n11)(n44,256,n14)(n44,259,n16)(n44,260,n19)(n44,261,n21)(n44,262,n21)(n44,263,n24)(n44,266,n26)(n44,267,n27)(n44,268,n27)(n44,271,n30)(n44,276,n32)(n44,277,n34)(n44,279,n36)(n44,280,n38)(n44,281,n40)(n44,284,n42)(n44,288,n45)(n45,0,nodeT)(n45,250,nodeT)(n45,251,nodeT)(n45,252,nodeT)(n45,254,nodeT)(n45,256,nodeT)(n45,259,nodeT)(n45,260,nodeT)(n45,261,nodeT)(n45,262,nodeT)(n45,263,nodeT)(n45,266,nodeT)(n45,267,nodeT)(n45,268,nodeT)(n45,271,nodeT)(n45,276,nodeT)(n45,277,nodeT)(n45,279,nodeT)(n45,280,nodeT)(n45,281,nodeT)(n45,284,nodeT)(n45,288,nodeT)(n46,0,n4)(n46,250,n6)(n46,251,n9)(n46,252,n11)(n46,254,n11)(n46,256,n14)(n46,259,n16)(n46,260,n19)(n46,261,n21)(n46,262,n21)(n46,263,n24)(n46,266,n26)(n46,267,n27)(n46,268,n27)(n46,271,n30)(n46,276,n32)(n46,277,n34)(n46,279,n36)(n46,280,n38)(n46,281,n40)(n46,284,n42)(n46,288,n45)(n46,305,n45)(n47,0,n4)(n47,250,n6)(n47,251,n9)(n47,252,n11)(n47,254,n11)(n47,256,n14)(n47,259,n16)(n47,260,n19)(n47,261,n21)(n47,262,n21)(n47,263,n24)(n47,266,n26)(n47,267,n27)(n47,268,n27)(n47,271,n30)(n47,276,n32)(n47,277,n34)(n47,279,n36)(n47,280,n38)(n47,281,n40)(n47,284,n42)(n47,288,n45)(n47,305,n45)(n47,308,n48)(n48,0,nodeT)(n48,250,nodeT)(n48,251,nodeT)(n48,252,nodeT)(n48,254,nodeT)(n48,256,nodeT)(n48,259,nodeT)(n48,260,nodeT)(n48,261,nodeT)(n48,262,nodeT)(n48,263,nodeT)(n48,266,nodeT)(n48,267,nodeT)(n48,268,nodeT)(n48,271,nodeT)(n48,276,nodeT)(n48,277,nodeT)(n48,279,nodeT)(n48,280,nodeT)(n48,281,nodeT)(n48,284,nodeT)(n48,288,nodeT)(n48,305,nodeT)(n49,0,n4)(n49,250,n6)(n49,251,n9)(n49,252,n11)(n49,254,n11)(n49,256,n14)(n49,259,n16)(n49,260,n19)(n49,261,n21)(n49,262,n21)(n49,263,n24)(n49,266,n26)(n49,267,n27)(n49,268,n27)(n49,271,n30)(n49,276,n32)(n49,277,n34)(n49,279,n36)(n49,280,n38)(n49,281,n40)(n49,284,n42)(n49,288,n45)(n49,305,n45)(n49,308,n48)(n49,326,n50)(n50,0,nodeT)(n50,250,nodeT)(n50,251,nodeT)(n50,252,nodeT)(n50,254,nodeT)(n50,256,nodeT)(n50,259,nodeT)(n50,260,nodeT)(n50,261,nodeT)(n50,262,nodeT)(n50,263,nodeT)(n50,266,nodeT)(n50,267,nodeT)(n50,268,nodeT)(n50,271,nodeT)(n50,276,nodeT)(n50,277,nodeT)(n50,279,nodeT)(n50,280,nodeT)(n50,281,nodeT)(n50,284,nodeT)(n50,288,nodeT)(n50,305,nodeT)(n50,308,nodeT)(n51,0,n4)(n51,250,n6)(n51,251,n9)(n51,252,n11)(n51,254,n11)(n51,256,n14)(n51,259,n16)(n51,260,n19)(n51,261,n21)(n51,262,n21)(n51,263,n24)(n51,266,n26)(n51,267,n27)(n51,268,n27)(n51,271,n30)(n51,276,n32)(n51,277,n34)(n51,279,n36)(n51,280,n38)(n51,281,n40)(n51,284,n42)(n51,288,n45)(n51,305,n45)(n51,308,n48)(n51,326,n50)(n51,328,n52)(n52,0,nodeT)(n52,250,nodeT)(n52,251,nodeT)(n52,252,nodeT)(n52,254,nodeT)(n52,256,nodeT)(n52,259,nodeT)(n52,260,nodeT)(n52,261,nodeT)(n52,262,nodeT)(n52,263,nodeT)(n52,266,nodeT)(n52,267,nodeT)(n52,268,nodeT)(n52,271,nodeT)(n52,276,nodeT)(n52,277,nodeT)(n52,279,nodeT)(n52,280,nodeT)(n52,281,nodeT)(n52,284,nodeT)(n52,288,nodeT)(n52,305,nodeT)(n52,308,nodeT)(n52,326,nodeT)(n53,0,n4)(n53,250,n6)(n53,251,n9)(n53,252,n11)(n53,254,n11)(n53,256,n14)(n53,259,n16)(n53,260,n19)(n53,261,n21)(n53,262,n21)(n53,263,n24)(n53,266,n26)(n53,267,n27)(n53,268,n27)(n53,271,n30)(n53,276,n32)(n53,277,n34)(n53,279,n36)(n53,280,n38)(n53,281,n40)(n53,284,n42)(n53,288,n45)(n53,305,n45)(n53,308,n48)(n53,326,n50)(n53,328,n52)(n53,339,n50)(n54,0,n4)(n54,250,n6)(n54,251,n9)(n54,252,n11)(n54,254,n11)(n54,256,n14)(n54,259,n16)(n54,260,n19)(n54,261,n21)(n54,262,n21)(n54,263,n24)(n54,266,n26)(n54,267,n27)(n54,268,n27)(n54,271,n30)(n54,276,n32)(n54,277,n34)(n54,279,n36)(n54,280,n38)(n54,281,n40)(n54,284,n42)(n54,288,n45)(n54,305,n45)(n54,308,n48)(n54,326,n50)(n54,328,n50)(n54,339,n50)(n54,345,n48)(n54,350,n45)(n55,0,n4)(n55,250,n6)(n55,251,n9)(n55,252,n11)(n55,254,n11)(n55,256,n14)(n55,259,n16)(n55,260,n19)(n55,261,n21)(n55,262,n21)(n55,263,n24)(n55,266,n26)(n55,267,n27)(n55,268,n27)(n55,271,n30)(n55,276,n32)(n55,277,n34)(n55,279,n36)(n55,280,n38)(n55,281,n40)(n55,284,n42)(n55,288,n45)(n55,305,n45)(n55,308,n48)(n55,326,n50)(n55,328,n50)(n55,339,n50)(n55,345,n45)(n55,350,n45)(n56,0,n4)(n56,250,n6)(n56,251,n9)(n56,252,n11)(n56,254,n11)(n56,256,n14)(n56,259,n16)(n56,260,n19)(n56,261,n21)(n56,262,n21)(n56,263,n24)(n56,266,n26)(n56,267,n27)(n56,268,n27)(n56,271,n30)(n56,276,n32)(n56,277,n34)(n56,279,n36)(n56,280,n38)(n56,281,n40)(n56,284,n42)(n56,288,n45)(n56,305,n45)(n56,308,n48)(n56,326,n50)(n56,328,n50)(n56,339,n48)(n56,345,n45)(n56,350,n45)(n56,352,n45)(n57,0,n4)(n57,250,n6)(n57,251,n9)(n57,252,n11)(n57,254,n11)(n57,256,n14)(n57,259,n16)(n57,260,n19)(n57,261,n21)(n57,262,n21)(n57,263,n24)(n57,266,n26)(n57,267,n27)(n57,268,n27)(n57,271,n30)(n57,276,n32)(n57,277,n34)(n57,279,n36)(n57,280,n38)(n57,281,n40)(n57,284,n42)(n57,288,n45)(n57,305,n45)(n57,308,n48)(n57,326,n50)(n57,328,n50)(n57,339,n45)(n57,345,n45)(n57,350,n45)(n57,352,n43)(n57,354,n43)(n58,0,n4)(n58,250,n6)(n58,251,n9)(n58,252,n11)(n58,254,n11)(n58,256,n14)(n58,259,n16)(n58,260,n19)(n58,261,n21)(n58,262,n21)(n58,263,n24)(n58,266,n26)(n58,267,n27)(n58,268,n27)(n58,271,n30)(n58,276,n32)(n58,277,n34)(n58,279,n36)(n58,280,n38)(n58,281,n40)(n58,284,n42)(n58,288,n45)(n58,305,n45)(n58,308,n48)(n58,326,n48)(n58,328,n48)(n58,339,n45)(n58,345,n45)(n58,350,n42)(n58,352,n42)(n58,354,n38)(n58,362,n32)(n59,0,n4)(n59,250,n6)(n59,251,n9)(n59,252,n11)(n59,254,n11)(n59,256,n14)(n59,259,n16)(n59,260,n19)(n59,261,n21)(n59,262,n21)(n59,263,n24)(n59,266,n26)(n59,267,n27)(n59,268,n27)(n59,271,n30)(n59,276,n32)(n59,277,n34)(n59,279,n36)(n59,280,n38)(n59,281,n40)(n59,284,n42)(n59,288,n45)(n59,305,n45)(n59,308,n48)(n59,326,n48)(n59,328,n45)(n59,339,n45)(n59,345,n43)(n59,350,n42)(n59,352,n38)(n59,354,n36)(n59,362,n30)(n59,367,n26)(n60,0,n4)(n60,250,n6)(n60,251,n9)(n60,252,n11)(n60,254,n11)(n60,256,n14)(n60,259,n16)(n60,260,n19)(n60,261,n21)(n60,262,n21)(n60,263,n24)(n60,266,n26)(n60,267,n27)(n60,268,n27)(n60,271,n30)(n60,276,n32)(n60,277,n34)(n60,279,n36)(n60,280,n38)(n60,281,n40)(n60,284,n42)(n60,288,n45)(n60,305,n45)(n60,308,n48)(n60,326,n45)(n60,328,n45)(n60,339,n42)(n60,345,n36)(n60,350,n32)(n60,352,n30)(n60,354,n30)(n60,362,n19)(n60,367,n14)(n60,369,n11)(n61,0,n4)(n61,250,n6)(n61,251,n9)(n61,252,n11)(n61,254,n11)(n61,256,n14)(n61,259,n16)(n61,260,n19)(n61,261,n21)(n61,262,n21)(n61,263,n24)(n61,266,n26)(n61,267,n27)(n61,268,n27)(n61,271,n30)(n61,276,n32)(n61,277,n34)(n61,279,n36)(n61,280,n38)(n61,281,n40)(n61,284,n42)(n61,288,n45)(n61,305,n45)(n61,308,n45)(n61,326,n43)(n61,328,n42)(n61,339,n32)(n61,345,n26)(n61,350,n19)(n61,352,n16)(n61,354,n16)(n61,362,n4)(n61,367,n4)(n61,369,n4)(n61,378,n4)(n62,0,n4)(n62,250,n6)(n62,251,n9)(n62,252,n11)(n62,254,n11)(n62,256,n14)(n62,259,n16)(n62,260,n19)(n62,261,n21)(n62,262,n21)(n62,263,n24)(n62,266,n26)(n62,267,n27)(n62,268,n27)(n62,271,n30)(n62,276,n32)(n62,277,n34)(n62,279,n36)(n62,280,n38)(n62,281,n40)(n62,284,n42)(n62,288,n45)(n62,305,n45)(n62,308,n45)(n62,326,n34)(n62,328,n32)(n62,339,n26)(n62,345,n16)(n62,350,n11)(n62,352,n6)(n62,354,n4)(n62,362,n4)(n62,367,n4)(n62,369,n4)(n62,378,n4)(n62,390,n4)(n63,0,n4)(n63,250,n6)(n63,251,n9)(n63,252,n11)(n63,254,n11)(n63,256,n14)(n63,259,n16)(n63,260,n19)(n63,261,n21)(n63,262,n21)(n63,263,n24)(n63,266,n26)(n63,267,n27)(n63,268,n27)(n63,271,n30)(n63,276,n32)(n63,277,n34)(n63,279,n36)(n63,280,n38)(n63,281,n40)(n63,284,n42)(n63,288,n45)(n63,305,n45)(n63,308,n45)(n63,326,n32)(n63,328,n32)(n63,339,n21)(n63,345,n14)(n63,350,n6)(n63,352,n4)(n63,354,n4)(n63,362,n4)(n63,367,n4)(n63,369,n4)(n63,378,n4)(n63,390,n4)(n63,398,n4)(n64,0,n4)(n64,250,n6)(n64,251,n9)(n64,252,n11)(n64,254,n11)(n64,256,n14)(n64,259,n16)(n64,260,n19)(n64,261,n21)(n64,262,n21)(n64,263,n24)(n64,266,n26)(n64,267,n27)(n64,268,n27)(n64,271,n30)(n64,276,n32)(n64,277,n34)(n64,279,n36)(n64,280,n38)(n64,281,n40)(n64,284,n42)(n64,288,n45)(n64,305,n45)(n64,308,n45)(n64,326,n32)(n64,328,n32)(n64,339,n19)(n64,345,n14)(n64,350,n4)(n64,352,n4)(n64,354,n4)(n64,362,n4)(n64,367,n4)(n64,369,n4)(n64,378,n4)(n64,390,n4)(n64,398,n4)(n64,400,n4)(n65,0,n4)(n65,250,n6)(n65,251,n9)(n65,252,n11)(n65,254,n11)(n65,256,n14)(n65,259,n16)(n65,260,n19)(n65,261,n21)(n65,262,n21)(n65,263,n24)(n65,266,n26)(n65,267,n27)(n65,268,n27)(n65,271,n30)(n65,276,n32)(n65,277,n34)(n65,279,n36)(n65,280,n38)(n65,281,n40)(n65,284,n42)(n65,288,n42)(n65,305,n66)(n65,308,n26)(n65,326,n4)(n65,328,n4)(n65,339,n4)(n65,345,n4)(n65,350,n4)(n65,352,n4)(n65,354,n4)(n65,362,n4)(n65,367,n4)(n65,369,n4)(n65,378,n4)(n65,390,n4)(n65,398,n4)(n65,400,n4)(n65,401,n4)(n66,0,nodeT)(n66,250,nodeT)(n66,251,nodeT)(n66,252,nodeT)(n66,254,nodeT)(n66,256,nodeT)(n66,259,nodeT)(n66,260,nodeT)(n66,261,nodeT)(n66,262,nodeT)(n66,263,nodeT)(n66,266,nodeT)(n67,0,n4)(n67,250,n6)(n67,251,n9)(n67,252,n11)(n67,254,n11)(n67,256,n14)(n67,259,n16)(n67,260,n19)(n67,261,n21)(n67,262,n21)(n67,263,n24)(n67,266,n26)(n67,267,n27)(n67,268,n27)(n67,271,n30)(n67,276,n32)(n67,277,n34)(n67,279,n36)(n67,280,n38)(n67,281,n40)(n67,284,n42)(n67,288,n42)(n67,305,n26)(n67,308,n24)(n67,326,n4)(n67,328,n4)(n67,339,n4)(n67,345,n4)(n67,350,n4)(n67,352,n4)(n67,354,n4)(n67,362,n4)(n67,367,n4)(n67,369,n4)(n67,378,n4)(n67,390,n4)(n67,398,n4)(n67,400,n4)(n67,401,n4)(n67,429,n4)(n68,0,n4)(n68,250,n6)(n68,251,n9)(n68,252,n11)(n68,254,n11)(n68,256,n14)(n68,259,n16)(n68,260,n19)(n68,261,n21)(n68,262,n21)(n68,263,n24)(n68,266,n26)(n68,267,n27)(n68,268,n27)(n68,271,n30)(n68,276,n32)(n68,277,n34)(n68,279,n36)(n68,280,n38)(n68,281,n40)(n68,284,n40)(n68,288,n34)(n68,305,n17)(n68,308,n16)(n68,326,n4)(n68,328,n4)(n68,339,n4)(n68,345,n4)(n68,350,n4)(n68,352,n4)(n68,354,n4)(n68,362,n4)(n68,367,n4)(n68,369,n4)(n68,378,n4)(n68,390,n4)(n68,398,n4)(n68,400,n4)(n68,401,n4)(n68,429,n4)(n68,430,n4)(n69,0,n4)(n69,250,n6)(n69,251,n9)(n69,252,n11)(n69,254,n11)(n69,256,n14)(n69,259,n16)(n69,260,n19)(n69,261,n21)(n69,262,n21)(n69,263,n24)(n69,266,n26)(n69,267,n27)(n69,268,n27)(n69,271,n30)(n69,276,n26)(n69,277,n26)(n69,279,n24)(n69,280,n21)(n69,281,n19)(n69,284,n16)(n69,288,n11)(n69,305,n4)(n69,308,n4)(n69,326,n4)(n69,328,n4)(n69,339,n4)(n69,345,n4)(n69,350,n4)(n69,352,n4)(n69,354,n4)(n69,362,n4)(n69,367,n4)(n69,369,n4)(n69,378,n4)(n69,390,n4)(n69,398,n4)(n69,400,n4)(n69,401,n4)(n69,429,n4)(n69,430,n4)(n69,436,n4)(n70,0,n4)(n70,250,n6)(n70,251,n9)(n70,252,n11)(n70,254,n11)(n70,256,n14)(n70,259,n16)(n70,260,n19)(n70,261,n21)(n70,262,n21)(n70,263,n24)(n70,266,n26)(n70,267,n27)(n70,268,n27)(n70,271,n26)(n70,276,n19)(n70,277,n17)(n70,279,n16)(n70,280,n16)(n70,281,n14)(n70,284,n11)(n70,288,n4)(n70,305,n4)(n70,308,n4)(n70,326,n4)(n70,328,n4)(n70,339,n4)(n70,345,n4)(n70,350,n4)(n70,352,n4)(n70,354,n4)(n70,362,n4)(n70,367,n4)(n70,369,n4)(n70,378,n4)(n70,390,n4)(n70,398,n4)(n70,400,n4)(n70,401,n4)(n70,429,n4)(n70,430,n4)(n70,436,n4)(n70,459,n4)(n71,0,n4)(n71,250,n6)(n71,251,n9)(n71,252,n11)(n71,254,n11)(n71,256,n14)(n71,259,n16)(n71,260,n19)(n71,261,n21)(n71,262,n21)(n71,263,n21)(n71,266,n16)(n71,267,n16)(n71,268,n16)(n71,271,n11)(n71,276,n4)(n71,277,n4)(n71,279,n4)(n71,280,n4)(n71,281,n4)(n71,284,n4)(n71,288,n4)(n71,305,n4)(n71,308,n4)(n71,326,n4)(n71,328,n4)(n71,339,n4)(n71,345,n4)(n71,350,n4)(n71,352,n4)(n71,354,n4)(n71,362,n4)(n71,367,n4)(n71,369,n4)(n71,378,n4)(n71,390,n4)(n71,398,n4)(n71,400,n4)(n71,401,n4)(n71,429,n4)(n71,430,n4)(n71,436,n4)(n71,459,n4)(n71,464,n4)(n72,0,n4)(n72,250,n6)(n72,251,n9)(n72,252,n11)(n72,254,n11)(n72,256,n14)(n72,259,n16)(n72,260,n19)(n72,261,n19)(n72,262,n17)(n72,263,n16)(n72,266,n14)(n72,267,n14)(n72,268,n11)(n72,271,n6)(n72,276,n4)(n72,277,n4)(n72,279,n4)(n72,280,n4)(n72,281,n4)(n72,284,n4)(n72,288,n4)(n72,305,n4)(n72,308,n4)(n72,326,n4)(n72,328,n4)(n72,339,n4)(n72,345,n4)(n72,350,n4)(n72,352,n4)(n72,354,n4)(n72,362,n4)(n72,367,n4)(n72,369,n4)(n72,378,n4)(n72,390,n4)(n72,398,n4)(n72,400,n4)(n72,401,n4)(n72,429,n4)(n72,430,n4)(n72,436,n4)(n72,459,n4)(n72,464,n4)(n72,476,n4)(n73,0,n4)(n73,250,n6)(n73,251,n9)(n73,252,n11)(n73,254,n11)(n73,256,n14)(n73,259,n16)(n73,260,n16)(n73,261,n16)(n73,262,n16)(n73,263,n14)(n73,266,n11)(n73,267,n9)(n73,268,n6)(n73,271,n4)(n73,276,n4)(n73,277,n4)(n73,279,n4)(n73,280,n4)(n73,281,n4)(n73,284,n4)(n73,288,n4)(n73,305,n4)(n73,308,n4)(n73,326,n4)(n73,328,n4)(n73,339,n4)(n73,345,n4)(n73,350,n4)(n73,352,n4)(n73,354,n4)(n73,362,n4)(n73,367,n4)(n73,369,n4)(n73,378,n4)(n73,390,n4)(n73,398,n4)(n73,400,n4)(n73,401,n4)(n73,429,n4)(n73,430,n4)(n73,436,n4)(n73,459,n4)(n73,464,n4)(n73,476,n4)(n73,479,n4)(n73,482,n4)(n74,0,n4)(n74,250,n6)(n74,251,n9)(n74,252,n11)(n74,254,n11)(n74,256,n6)(n74,259,n4)(n74,260,n4)(n74,261,n4)(n74,262,n4)(n74,263,n4)(n74,266,n4)(n74,267,n4)(n74,268,n4)(n74,271,n4)(n74,276,n4)(n74,277,n4)(n74,279,n4)(n74,280,n4)(n74,281,n4)(n74,284,n4)(n74,288,n4)(n74,305,n4)(n74,308,n4)(n74,326,n4)(n74,328,n4)(n74,339,n4)(n74,345,n4)(n74,350,n4)(n74,352,n4)(n74,354,n4)(n74,362,n4)(n74,367,n4)(n74,369,n4)(n74,378,n4)(n74,390,n4)(n74,398,n4)(n74,400,n4)(n74,401,n4)(n74,429,n4)(n74,430,n4)(n74,436,n4)(n74,459,n4)(n74,464,n4)(n74,476,n4)(n74,479,n4)(n74,482,n4)(n75,0,n4)(n75,250,n6)(n75,251,n9)(n75,252,n6)(n75,254,n4)(n75,256,n4)(n75,259,n4)(n75,260,n4)(n75,261,n4)(n75,262,n4)(n75,263,n4)(n75,266,n4)(n75,267,n4)(n75,268,n4)(n75,271,n4)(n75,276,n4)(n75,277,n4)(n75,279,n4)(n75,280,n4)(n75,281,n4)(n75,284,n4)(n75,288,n4)(n75,305,n4)(n75,308,n4)(n75,326,n4)(n75,328,n4)(n75,339,n4)(n75,345,n4)(n75,350,n4)(n75,352,n4)(n75,354,n4)(n75,362,n4)(n75,367,n4)(n75,369,n4)(n75,378,n4)(n75,390,n4)(n75,398,n4)(n75,400,n4)(n75,401,n4)(n75,429,n4)(n75,430,n4)(n75,436,n4)(n75,459,n4)(n75,464,n4)(n75,476,n4)(n75,479,n4)(n75,482,n4)(n75,494,n4)(n75,498,n4) </transitions>
      </mdd>
      <args> b[0][] </args>
      <args> b[1][] </args>
      <args> b[2][] </args>
      <args> b[3][] </args>
      <args> b[4][] </args>
      <args> b[5][] </args>
      <args> b[6][] </args>
      <args> b[7][] </args>
      <args> b[8][] </args>
      <args> b[9][] </args>
      <args> b[10][] </args>
      <args> b[11][] </args>
      <args> b[12][] </args>
      <args> b[13][] </args>
      <args> b[14][] </args>
      <args> b[15][] </args>
      <args> b[16][] </args>
      <args> b[17][] </args>
      <args> b[18][] </args>
      <args> b[19][] </args>
      <args> b[20][] </args>
      <args> b[21][] </args>
      <args> b[22][] </args>
      <args> b[23][] </args>
    </group>
    <cardinality>
      <list> b[][] </list>
      <values> 0 250 251 252 254 256 259 260 261 262 263 266 267 268 271 276 277 279 280 281 284 288 305 308 326 328 339 345 350 352 354 362 367 369 378 390 398 400 401 429 430 436 459 464 476 479 482 494 498 </values>
      <occurs> 12 3 2 2 1 1 1 2 2 1 1 1 3 1 1 1 1 1 1 1 1 2 1 1 1 1 1 1 2 1 1 1 1 1 1 1 1 1 1 1 1 1 1 1 1 1 2 1 2 </occurs>
    </cardinality>
    <lex class="symmetryBreaking">
      <list> b[0][] </list>
      <list> b[1][] </list>
      <list> b[2][] </list>
      <list> b[3][] </list>
      <list> b[4][] </list>
      <list> b[5][] </list>
      <list> b[6][] </list>
      <list> b[7][] </list>
      <list> b[8][] </list>
      <list> b[9][] </list>
      <list> b[10][] </list>
      <list> b[11][] </list>
      <list> b[12][] </list>
      <list> b[13][] </list>
      <list> b[14][] </list>
      <list> b[15][] </list>
      <list> b[16][] </list>
      <list> b[17][] </list>
      <list> b[18][] </list>
      <list> b[19][] </list>
      <list> b[20][] </list>
      <list> b[21][] </list>
      <list> b[22][] </list>
      <list> b[23][] </list>
      <operator> ge </operator>
    </lex>
    <count>
      <list> b[][0] </list>
      <values> 0 </values>
      <condition> (eq,x) </condition>
    </count>
  </constraints>
  <objectives>
    <maximize> x </maximize>
  </objectives>
</instance>
